c "564685.clq"
p edge 251 3760
e 1 17
e 1 32
e 1 74
e 1 104
e 1 188
e 2 17
e 2 18
e 2 21
e 2 23
e 2 31
e 2 33
e 2 35
e 2 37
e 2 38
e 2 43
e 2 44
e 2 46
e 2 50
e 2 54
e 2 56
e 2 58
e 2 61
e 2 63
e 2 64
e 2 65
e 2 71
e 2 74
e 2 86
e 2 92
e 2 100
e 2 102
e 2 115
e 2 117
e 2 122
e 2 125
e 2 126
e 2 128
e 2 132
e 2 137
e 2 139
e 2 141
e 2 144
e 2 145
e 2 147
e 2 156
e 2 157
e 2 165
e 2 167
e 2 172
e 2 184
e 2 191
e 2 194
e 2 214
e 2 221
e 2 223
e 2 233
e 2 242
e 2 245
e 3 17
e 3 18
e 3 19
e 3 20
e 3 22
e 3 23
e 3 25
e 3 26
e 3 27
e 3 30
e 3 32
e 3 33
e 3 35
e 3 36
e 3 37
e 3 38
e 3 39
e 3 44
e 3 45
e 3 53
e 3 54
e 3 60
e 3 63
e 3 83
e 3 84
e 3 85
e 3 94
e 3 95
e 3 99
e 3 101
e 3 103
e 3 104
e 3 107
e 3 112
e 3 125
e 3 129
e 3 132
e 3 138
e 3 142
e 3 150
e 3 153
e 3 159
e 3 167
e 3 168
e 3 177
e 3 200
e 3 210
e 3 216
e 3 217
e 3 227
e 3 248
e 4 17
e 4 18
e 4 19
e 4 20
e 4 21
e 4 23
e 4 26
e 4 27
e 4 47
e 4 48
e 4 50
e 4 54
e 4 59
e 4 68
e 4 73
e 4 82
e 4 114
e 4 191
e 4 202
e 5 17
e 5 18
e 5 19
e 5 20
e 5 21
e 5 22
e 5 23
e 5 24
e 5 25
e 5 26
e 5 27
e 5 29
e 5 30
e 5 33
e 5 34
e 5 35
e 5 36
e 5 38
e 5 39
e 5 40
e 5 41
e 5 43
e 5 46
e 5 47
e 5 48
e 5 51
e 5 56
e 5 59
e 5 60
e 5 61
e 5 63
e 5 64
e 5 65
e 5 67
e 5 68
e 5 69
e 5 71
e 5 76
e 5 80
e 5 93
e 5 99
e 5 101
e 5 103
e 5 106
e 5 107
e 5 109
e 5 124
e 5 129
e 5 132
e 5 138
e 5 143
e 5 145
e 5 147
e 5 149
e 5 161
e 5 166
e 5 172
e 5 177
e 5 178
e 5 181
e 5 183
e 5 184
e 5 191
e 5 198
e 5 199
e 5 212
e 5 218
e 5 219
e 5 242
e 6 17
e 6 18
e 6 19
e 6 20
e 6 21
e 6 22
e 6 24
e 6 25
e 6 30
e 6 31
e 6 34
e 6 39
e 6 50
e 6 51
e 6 53
e 6 55
e 6 56
e 6 57
e 6 60
e 6 62
e 6 68
e 6 69
e 6 73
e 6 74
e 6 76
e 6 78
e 6 89
e 6 91
e 6 107
e 6 114
e 6 124
e 6 131
e 6 132
e 6 138
e 6 143
e 6 146
e 6 148
e 6 149
e 6 152
e 6 167
e 6 173
e 6 187
e 6 202
e 6 205
e 6 221
e 6 228
e 7 17
e 7 18
e 7 19
e 7 20
e 7 21
e 7 23
e 7 24
e 7 26
e 7 31
e 7 37
e 7 46
e 7 50
e 7 52
e 7 55
e 7 59
e 7 63
e 7 76
e 7 81
e 7 95
e 7 100
e 7 114
e 7 143
e 7 153
e 7 154
e 7 165
e 7 194
e 7 204
e 7 236
e 7 238
e 8 17
e 8 18
e 8 19
e 8 21
e 8 22
e 8 27
e 8 28
e 8 29
e 8 32
e 8 39
e 8 42
e 8 52
e 8 61
e 8 64
e 8 83
e 8 90
e 8 96
e 8 98
e 8 104
e 8 115
e 8 127
e 8 132
e 8 141
e 8 144
e 8 161
e 8 182
e 8 200
e 8 220
e 9 17
e 9 18
e 9 19
e 9 20
e 9 21
e 9 22
e 9 24
e 9 25
e 9 26
e 9 28
e 9 30
e 9 31
e 9 40
e 9 47
e 9 55
e 9 56
e 9 57
e 9 66
e 9 69
e 9 74
e 9 81
e 9 82
e 9 96
e 9 98
e 9 99
e 9 101
e 9 105
e 9 116
e 9 132
e 9 138
e 9 141
e 9 144
e 9 151
e 9 157
e 9 179
e 9 180
e 9 182
e 9 185
e 9 186
e 9 199
e 9 206
e 9 210
e 9 229
e 9 234
e 10 17
e 10 18
e 10 19
e 10 20
e 10 21
e 10 22
e 10 23
e 10 24
e 10 25
e 10 26
e 10 28
e 10 30
e 10 35
e 10 38
e 10 39
e 10 40
e 10 51
e 10 52
e 10 53
e 10 57
e 10 59
e 10 63
e 10 71
e 10 75
e 10 79
e 10 84
e 10 85
e 10 110
e 10 112
e 10 121
e 10 122
e 10 133
e 10 134
e 10 135
e 10 146
e 10 152
e 10 153
e 10 159
e 10 163
e 10 166
e 10 170
e 10 204
e 10 213
e 10 214
e 10 215
e 10 225
e 10 226
e 10 227
e 11 17
e 11 18
e 11 19
e 11 20
e 11 21
e 11 22
e 11 23
e 11 25
e 11 27
e 11 31
e 11 32
e 11 33
e 11 34
e 11 35
e 11 43
e 11 44
e 11 46
e 11 47
e 11 50
e 11 51
e 11 52
e 11 53
e 11 60
e 11 61
e 11 63
e 11 65
e 11 66
e 11 67
e 11 70
e 11 73
e 11 80
e 11 82
e 11 86
e 11 87
e 11 91
e 11 99
e 11 108
e 11 110
e 11 111
e 11 115
e 11 118
e 11 120
e 11 128
e 11 136
e 11 143
e 11 146
e 11 159
e 11 189
e 11 201
e 11 206
e 11 208
e 11 209
e 11 210
e 11 212
e 11 221
e 11 230
e 11 235
e 11 248
e 11 249
e 12 17
e 12 18
e 12 19
e 12 20
e 12 21
e 12 22
e 12 23
e 12 24
e 12 25
e 12 28
e 12 31
e 12 32
e 12 33
e 12 34
e 12 37
e 12 41
e 12 55
e 12 56
e 12 66
e 12 71
e 12 89
e 12 95
e 12 105
e 12 106
e 12 122
e 12 123
e 12 137
e 12 138
e 12 146
e 12 148
e 12 150
e 12 155
e 12 162
e 12 192
e 12 200
e 12 213
e 13 17
e 13 18
e 13 19
e 13 20
e 13 21
e 13 22
e 13 23
e 13 24
e 13 27
e 13 29
e 13 31
e 13 40
e 13 43
e 13 44
e 13 49
e 13 59
e 13 66
e 13 75
e 13 77
e 13 84
e 13 108
e 13 110
e 13 129
e 13 148
e 13 158
e 13 164
e 13 169
e 13 178
e 13 208
e 13 210
e 13 231
e 13 240
e 13 249
e 14 17
e 14 18
e 14 19
e 14 20
e 14 21
e 14 22
e 14 23
e 14 25
e 14 26
e 14 27
e 14 28
e 14 29
e 14 30
e 14 31
e 14 33
e 14 34
e 14 36
e 14 37
e 14 41
e 14 42
e 14 43
e 14 50
e 14 54
e 14 57
e 14 58
e 14 67
e 14 71
e 14 73
e 14 74
e 14 77
e 14 79
e 14 80
e 14 83
e 14 84
e 14 88
e 14 95
e 14 118
e 14 124
e 14 125
e 14 131
e 14 136
e 14 140
e 14 159
e 14 161
e 14 163
e 14 170
e 14 173
e 14 178
e 14 186
e 14 191
e 14 196
e 14 206
e 14 215
e 14 237
e 14 239
e 14 241
e 14 251
e 15 17
e 15 18
e 15 19
e 15 20
e 15 22
e 15 23
e 15 24
e 15 25
e 15 27
e 15 28
e 15 30
e 15 31
e 15 37
e 15 40
e 15 43
e 15 47
e 15 48
e 15 63
e 15 65
e 15 85
e 15 88
e 15 92
e 15 93
e 15 94
e 15 121
e 15 148
e 15 153
e 15 156
e 15 157
e 15 162
e 15 167
e 15 180
e 15 183
e 15 184
e 15 213
e 15 218
e 16 17
e 16 18
e 16 19
e 16 20
e 16 24
e 16 26
e 16 28
e 16 29
e 16 30
e 16 32
e 16 38
e 16 48
e 16 50
e 16 54
e 16 56
e 16 59
e 16 61
e 16 85
e 16 87
e 16 89
e 16 93
e 16 94
e 16 103
e 16 105
e 16 116
e 16 153
e 16 159
e 16 162
e 16 165
e 16 168
e 16 173
e 16 174
e 16 186
e 16 210
e 16 240
e 17 18
e 17 19
e 17 20
e 17 21
e 17 22
e 17 23
e 17 24
e 17 25
e 17 26
e 17 27
e 17 28
e 17 29
e 17 30
e 17 32
e 17 33
e 17 34
e 17 35
e 17 38
e 17 42
e 17 43
e 17 45
e 17 56
e 17 62
e 17 68
e 17 69
e 17 78
e 17 79
e 17 81
e 17 84
e 17 85
e 17 88
e 17 93
e 17 97
e 17 104
e 17 105
e 17 107
e 17 111
e 17 112
e 17 114
e 17 117
e 17 118
e 17 127
e 17 139
e 17 142
e 17 145
e 17 147
e 17 152
e 17 156
e 17 158
e 17 161
e 17 175
e 17 183
e 17 184
e 17 187
e 17 197
e 17 208
e 17 219
e 17 220
e 17 226
e 18 19
e 18 20
e 18 21
e 18 22
e 18 23
e 18 24
e 18 25
e 18 27
e 18 28
e 18 29
e 18 30
e 18 31
e 18 32
e 18 33
e 18 35
e 18 36
e 18 37
e 18 38
e 18 39
e 18 43
e 18 44
e 18 45
e 18 46
e 18 48
e 18 49
e 18 51
e 18 54
e 18 56
e 18 57
e 18 60
e 18 66
e 18 67
e 18 72
e 18 76
e 18 79
e 18 80
e 18 81
e 18 85
e 18 86
e 18 88
e 18 89
e 18 90
e 18 94
e 18 99
e 18 100
e 18 106
e 18 117
e 18 118
e 18 119
e 18 125
e 18 126
e 18 129
e 18 130
e 18 132
e 18 133
e 18 139
e 18 148
e 18 151
e 18 152
e 18 154
e 18 159
e 18 174
e 18 178
e 18 182
e 18 189
e 18 203
e 18 213
e 18 219
e 18 228
e 18 232
e 18 238
e 19 20
e 19 21
e 19 22
e 19 24
e 19 25
e 19 26
e 19 27
e 19 29
e 19 31
e 19 32
e 19 36
e 19 39
e 19 41
e 19 42
e 19 44
e 19 45
e 19 46
e 19 47
e 19 48
e 19 49
e 19 50
e 19 51
e 19 52
e 19 53
e 19 55
e 19 57
e 19 58
e 19 61
e 19 62
e 19 64
e 19 65
e 19 66
e 19 69
e 19 70
e 19 71
e 19 75
e 19 77
e 19 81
e 19 91
e 19 92
e 19 93
e 19 98
e 19 99
e 19 102
e 19 110
e 19 111
e 19 118
e 19 119
e 19 124
e 19 132
e 19 134
e 19 136
e 19 137
e 19 138
e 19 143
e 19 150
e 19 165
e 19 167
e 19 177
e 19 179
e 19 183
e 19 189
e 19 193
e 19 195
e 19 200
e 19 201
e 19 204
e 19 207
e 19 224
e 19 232
e 19 235
e 19 239
e 19 241
e 19 245
e 19 248
e 19 250
e 20 21
e 20 22
e 20 23
e 20 24
e 20 25
e 20 26
e 20 27
e 20 28
e 20 30
e 20 31
e 20 32
e 20 33
e 20 34
e 20 35
e 20 36
e 20 37
e 20 38
e 20 39
e 20 40
e 20 41
e 20 43
e 20 44
e 20 49
e 20 50
e 20 51
e 20 52
e 20 53
e 20 55
e 20 57
e 20 58
e 20 59
e 20 61
e 20 64
e 20 69
e 20 70
e 20 71
e 20 72
e 20 75
e 20 76
e 20 78
e 20 80
e 20 81
e 20 82
e 20 83
e 20 88
e 20 89
e 20 92
e 20 93
e 20 94
e 20 98
e 20 102
e 20 108
e 20 109
e 20 112
e 20 115
e 20 116
e 20 130
e 20 131
e 20 141
e 20 146
e 20 147
e 20 148
e 20 150
e 20 152
e 20 154
e 20 155
e 20 163
e 20 164
e 20 168
e 20 171
e 20 180
e 20 182
e 20 183
e 20 188
e 20 189
e 20 191
e 20 192
e 20 195
e 20 197
e 20 199
e 20 203
e 20 209
e 20 217
e 20 220
e 20 227
e 20 230
e 20 232
e 20 234
e 20 235
e 21 22
e 21 23
e 21 24
e 21 25
e 21 26
e 21 27
e 21 28
e 21 29
e 21 30
e 21 33
e 21 34
e 21 35
e 21 38
e 21 39
e 21 40
e 21 41
e 21 42
e 21 44
e 21 48
e 21 51
e 21 53
e 21 55
e 21 58
e 21 62
e 21 66
e 21 67
e 21 69
e 21 70
e 21 71
e 21 72
e 21 73
e 21 74
e 21 79
e 21 82
e 21 83
e 21 85
e 21 86
e 21 88
e 21 89
e 21 98
e 21 103
e 21 104
e 21 105
e 21 109
e 21 114
e 21 116
e 21 120
e 21 122
e 21 123
e 21 125
e 21 127
e 21 133
e 21 134
e 21 135
e 21 137
e 21 138
e 21 140
e 21 142
e 21 151
e 21 159
e 21 161
e 21 165
e 21 173
e 21 174
e 21 178
e 21 184
e 21 185
e 21 186
e 21 191
e 21 200
e 21 214
e 21 223
e 21 232
e 21 233
e 21 238
e 22 23
e 22 24
e 22 25
e 22 26
e 22 27
e 22 28
e 22 29
e 22 31
e 22 32
e 22 33
e 22 34
e 22 36
e 22 40
e 22 44
e 22 45
e 22 46
e 22 50
e 22 52
e 22 53
e 22 55
e 22 57
e 22 60
e 22 62
e 22 70
e 22 75
e 22 84
e 22 87
e 22 90
e 22 92
e 22 95
e 22 97
e 22 98
e 22 99
e 22 100
e 22 105
e 22 110
e 22 123
e 22 126
e 22 133
e 22 135
e 22 140
e 22 143
e 22 146
e 22 152
e 22 157
e 22 170
e 22 173
e 22 174
e 22 176
e 22 177
e 22 180
e 22 187
e 22 190
e 22 197
e 22 198
e 22 208
e 22 225
e 22 228
e 22 239
e 22 240
e 23 24
e 23 25
e 23 26
e 23 27
e 23 28
e 23 29
e 23 31
e 23 34
e 23 37
e 23 39
e 23 41
e 23 42
e 23 43
e 23 44
e 23 45
e 23 50
e 23 57
e 23 60
e 23 64
e 23 67
e 23 68
e 23 72
e 23 73
e 23 77
e 23 78
e 23 80
e 23 81
e 23 86
e 23 95
e 23 101
e 23 108
e 23 110
e 23 112
e 23 117
e 23 120
e 23 122
e 23 124
e 23 125
e 23 129
e 23 142
e 23 144
e 23 151
e 23 158
e 23 165
e 23 168
e 23 170
e 23 171
e 23 175
e 23 180
e 23 185
e 23 193
e 23 195
e 23 198
e 23 199
e 23 206
e 23 207
e 23 211
e 23 214
e 23 232
e 23 236
e 23 237
e 23 245
e 23 247
e 23 249
e 23 250
e 24 26
e 24 28
e 24 29
e 24 30
e 24 31
e 24 32
e 24 33
e 24 36
e 24 37
e 24 39
e 24 40
e 24 42
e 24 43
e 24 44
e 24 49
e 24 52
e 24 55
e 24 59
e 24 73
e 24 76
e 24 84
e 24 87
e 24 88
e 24 92
e 24 101
e 24 111
e 24 114
e 24 117
e 24 121
e 24 123
e 24 128
e 24 129
e 24 136
e 24 141
e 24 148
e 24 152
e 24 160
e 24 165
e 24 169
e 24 185
e 24 201
e 24 205
e 24 215
e 24 234
e 24 236
e 24 239
e 24 243
e 24 251
e 25 26
e 25 27
e 25 28
e 25 29
e 25 30
e 25 32
e 25 35
e 25 36
e 25 39
e 25 41
e 25 47
e 25 55
e 25 60
e 25 61
e 25 69
e 25 75
e 25 79
e 25 84
e 25 89
e 25 90
e 25 93
e 25 94
e 25 95
e 25 96
e 25 97
e 25 98
e 25 99
e 25 101
e 25 104
e 25 106
e 25 108
e 25 113
e 25 116
e 25 123
e 25 132
e 25 140
e 25 144
e 25 146
e 25 149
e 25 158
e 25 160
e 25 167
e 25 172
e 25 173
e 25 182
e 25 184
e 25 188
e 25 193
e 25 194
e 25 195
e 25 197
e 25 205
e 25 206
e 25 208
e 25 236
e 25 241
e 26 29
e 26 31
e 26 33
e 26 34
e 26 35
e 26 37
e 26 40
e 26 43
e 26 45
e 26 49
e 26 53
e 26 55
e 26 58
e 26 61
e 26 62
e 26 66
e 26 74
e 26 77
e 26 88
e 26 91
e 26 100
e 26 104
e 26 106
e 26 109
e 26 113
e 26 118
e 26 121
e 26 126
e 26 136
e 26 139
e 26 142
e 26 164
e 26 218
e 26 219
e 26 239
e 26 242
e 27 28
e 27 29
e 27 33
e 27 34
e 27 35
e 27 36
e 27 39
e 27 42
e 27 46
e 27 48
e 27 50
e 27 57
e 27 66
e 27 69
e 27 71
e 27 78
e 27 83
e 27 85
e 27 86
e 27 93
e 27 94
e 27 101
e 27 103
e 27 104
e 27 107
e 27 109
e 27 111
e 27 120
e 27 124
e 27 132
e 27 140
e 27 147
e 27 148
e 27 149
e 27 156
e 27 160
e 27 169
e 27 175
e 27 190
e 27 191
e 27 193
e 27 220
e 27 235
e 27 249
e 28 29
e 28 30
e 28 32
e 28 34
e 28 35
e 28 36
e 28 37
e 28 38
e 28 42
e 28 43
e 28 45
e 28 48
e 28 51
e 28 54
e 28 63
e 28 71
e 28 78
e 28 79
e 28 82
e 28 83
e 28 90
e 28 91
e 28 94
e 28 95
e 28 97
e 28 101
e 28 107
e 28 112
e 28 120
e 28 122
e 28 125
e 28 127
e 28 128
e 28 130
e 28 131
e 28 133
e 28 134
e 28 140
e 28 144
e 28 145
e 28 149
e 28 151
e 28 156
e 28 159
e 28 175
e 28 180
e 28 182
e 28 188
e 28 189
e 28 211
e 28 217
e 28 226
e 28 230
e 28 231
e 28 234
e 28 242
e 28 243
e 28 246
e 28 248
e 29 30
e 29 32
e 29 34
e 29 36
e 29 38
e 29 39
e 29 40
e 29 41
e 29 46
e 29 47
e 29 52
e 29 54
e 29 56
e 29 61
e 29 63
e 29 65
e 29 66
e 29 68
e 29 71
e 29 74
e 29 75
e 29 81
e 29 84
e 29 87
e 29 88
e 29 91
e 29 99
e 29 103
e 29 117
e 29 125
e 29 127
e 29 133
e 29 136
e 29 140
e 29 142
e 29 143
e 29 161
e 29 172
e 29 185
e 29 198
e 29 203
e 29 204
e 29 205
e 29 207
e 29 221
e 29 229
e 29 243
e 30 36
e 30 37
e 30 39
e 30 40
e 30 41
e 30 42
e 30 43
e 30 44
e 30 46
e 30 53
e 30 54
e 30 58
e 30 59
e 30 67
e 30 71
e 30 82
e 30 85
e 30 88
e 30 92
e 30 97
e 30 102
e 30 103
e 30 104
e 30 108
e 30 109
e 30 116
e 30 121
e 30 123
e 30 124
e 30 128
e 30 143
e 30 145
e 30 149
e 30 159
e 30 162
e 30 172
e 30 175
e 30 177
e 30 183
e 30 185
e 30 186
e 30 189
e 30 192
e 30 201
e 30 202
e 30 203
e 30 213
e 30 229
e 30 233
e 30 234
e 30 245
e 30 248
e 31 32
e 31 33
e 31 34
e 31 36
e 31 37
e 31 38
e 31 41
e 31 42
e 31 45
e 31 46
e 31 47
e 31 48
e 31 49
e 31 52
e 31 54
e 31 55
e 31 56
e 31 65
e 31 70
e 31 72
e 31 76
e 31 77
e 31 80
e 31 85
e 31 92
e 31 94
e 31 96
e 31 99
e 31 102
e 31 104
e 31 106
e 31 109
e 31 118
e 31 120
e 31 124
e 31 125
e 31 128
e 31 131
e 31 136
e 31 142
e 31 144
e 31 151
e 31 155
e 31 161
e 31 164
e 31 166
e 31 169
e 31 171
e 31 176
e 31 181
e 31 190
e 31 195
e 31 201
e 31 204
e 31 216
e 31 227
e 31 235
e 32 33
e 32 35
e 32 36
e 32 37
e 32 38
e 32 40
e 32 42
e 32 45
e 32 47
e 32 49
e 32 51
e 32 61
e 32 65
e 32 67
e 32 68
e 32 70
e 32 72
e 32 74
e 32 75
e 32 76
e 32 78
e 32 80
e 32 83
e 32 84
e 32 87
e 32 91
e 32 93
e 32 97
e 32 100
e 32 102
e 32 105
e 32 107
e 32 108
e 32 112
e 32 115
e 32 117
e 32 120
e 32 128
e 32 129
e 32 130
e 32 132
e 32 135
e 32 146
e 32 153
e 32 155
e 32 160
e 32 170
e 32 176
e 32 180
e 32 194
e 32 198
e 32 212
e 32 213
e 32 214
e 32 216
e 32 221
e 32 222
e 32 238
e 32 240
e 33 34
e 33 35
e 33 36
e 33 37
e 33 41
e 33 49
e 33 59
e 33 72
e 33 76
e 33 78
e 33 79
e 33 81
e 33 83
e 33 100
e 33 102
e 33 105
e 33 107
e 33 111
e 33 112
e 33 117
e 33 128
e 33 131
e 33 133
e 33 135
e 33 138
e 33 162
e 33 169
e 33 172
e 33 174
e 33 177
e 33 181
e 33 200
e 33 218
e 33 220
e 33 228
e 33 231
e 33 238
e 33 245
e 33 248
e 34 35
e 34 38
e 34 43
e 34 44
e 34 45
e 34 46
e 34 53
e 34 56
e 34 58
e 34 62
e 34 64
e 34 65
e 34 68
e 34 75
e 34 82
e 34 86
e 34 91
e 34 94
e 34 96
e 34 102
e 34 109
e 34 110
e 34 118
e 34 119
e 34 123
e 34 135
e 34 138
e 34 142
e 34 143
e 34 145
e 34 149
e 34 162
e 34 172
e 34 176
e 34 178
e 34 179
e 34 185
e 34 193
e 34 196
e 34 202
e 34 206
e 34 212
e 34 215
e 34 223
e 34 233
e 34 240
e 35 38
e 35 39
e 35 40
e 35 41
e 35 42
e 35 45
e 35 48
e 35 49
e 35 51
e 35 53
e 35 54
e 35 57
e 35 58
e 35 59
e 35 64
e 35 68
e 35 71
e 35 73
e 35 78
e 35 80
e 35 85
e 35 89
e 35 91
e 35 101
e 35 102
e 35 103
e 35 105
e 35 107
e 35 115
e 35 118
e 35 120
e 35 124
e 35 130
e 35 133
e 35 141
e 35 144
e 35 150
e 35 156
e 35 159
e 35 160
e 35 165
e 35 172
e 35 176
e 35 178
e 35 180
e 35 183
e 35 194
e 35 198
e 35 205
e 35 209
e 35 213
e 35 233
e 35 238
e 35 239
e 35 244
e 35 245
e 35 251
e 36 38
e 36 40
e 36 41
e 36 42
e 36 61
e 36 62
e 36 68
e 36 79
e 36 83
e 36 84
e 36 92
e 36 94
e 36 101
e 36 112
e 36 113
e 36 114
e 36 121
e 36 122
e 36 125
e 36 126
e 36 132
e 36 147
e 36 167
e 36 182
e 36 185
e 36 192
e 36 200
e 36 207
e 36 218
e 37 41
e 37 44
e 37 46
e 37 47
e 37 52
e 37 53
e 37 54
e 37 69
e 37 73
e 37 77
e 37 78
e 37 81
e 37 83
e 37 90
e 37 91
e 37 96
e 37 101
e 37 103
e 37 119
e 37 124
e 37 131
e 37 149
e 37 156
e 37 158
e 37 162
e 37 164
e 37 176
e 37 186
e 37 190
e 37 203
e 37 207
e 37 215
e 37 236
e 37 243
e 38 42
e 38 47
e 38 48
e 38 58
e 38 60
e 38 68
e 38 70
e 38 72
e 38 77
e 38 87
e 38 88
e 38 90
e 38 95
e 38 96
e 38 99
e 38 109
e 38 111
e 38 113
e 38 116
e 38 129
e 38 136
e 38 153
e 38 155
e 38 158
e 38 159
e 38 176
e 38 188
e 38 193
e 38 195
e 38 214
e 38 218
e 38 219
e 38 229
e 38 234
e 38 241
e 38 244
e 38 248
e 39 40
e 39 43
e 39 44
e 39 45
e 39 46
e 39 47
e 39 48
e 39 49
e 39 51
e 39 52
e 39 53
e 39 57
e 39 58
e 39 63
e 39 64
e 39 66
e 39 70
e 39 78
e 39 81
e 39 85
e 39 87
e 39 93
e 39 97
e 39 102
e 39 119
e 39 122
e 39 129
e 39 130
e 39 131
e 39 136
e 39 140
e 39 156
e 39 162
e 39 182
e 39 195
e 39 205
e 39 211
e 39 219
e 39 224
e 39 233
e 40 41
e 40 44
e 40 45
e 40 50
e 40 52
e 40 54
e 40 58
e 40 60
e 40 63
e 40 68
e 40 73
e 40 76
e 40 80
e 40 83
e 40 88
e 40 89
e 40 90
e 40 94
e 40 103
e 40 105
e 40 113
e 40 116
e 40 118
e 40 120
e 40 138
e 40 143
e 40 151
e 40 158
e 40 159
e 40 168
e 40 170
e 40 180
e 40 182
e 40 184
e 40 187
e 40 189
e 40 212
e 40 231
e 40 241
e 41 42
e 41 45
e 41 47
e 41 49
e 41 54
e 41 62
e 41 66
e 41 68
e 41 70
e 41 72
e 41 73
e 41 74
e 41 84
e 41 87
e 41 90
e 41 97
e 41 98
e 41 108
e 41 119
e 41 120
e 41 121
e 41 122
e 41 135
e 41 139
e 41 143
e 41 149
e 41 151
e 41 156
e 41 157
e 41 163
e 41 169
e 41 191
e 41 208
e 41 209
e 41 211
e 41 212
e 41 230
e 41 233
e 41 241
e 41 248
e 41 250
e 42 46
e 42 47
e 42 49
e 42 50
e 42 51
e 42 56
e 42 58
e 42 59
e 42 60
e 42 61
e 42 62
e 42 70
e 42 72
e 42 74
e 42 82
e 42 95
e 42 96
e 42 100
e 42 113
e 42 117
e 42 129
e 42 131
e 42 136
e 42 139
e 42 148
e 42 149
e 42 164
e 42 183
e 42 188
e 42 190
e 42 191
e 42 196
e 42 212
e 42 222
e 42 243
e 42 250
e 43 49
e 43 51
e 43 56
e 43 59
e 43 61
e 43 64
e 43 65
e 43 90
e 43 99
e 43 105
e 43 118
e 43 121
e 43 135
e 43 156
e 43 159
e 43 168
e 43 169
e 43 175
e 43 180
e 43 196
e 43 200
e 43 208
e 43 213
e 43 221
e 43 224
e 43 225
e 43 226
e 43 229
e 43 236
e 43 241
e 44 45
e 44 48
e 44 56
e 44 60
e 44 61
e 44 62
e 44 63
e 44 65
e 44 66
e 44 84
e 44 86
e 44 95
e 44 100
e 44 121
e 44 142
e 44 145
e 44 149
e 44 155
e 44 157
e 44 164
e 44 165
e 44 168
e 44 174
e 44 182
e 44 196
e 44 207
e 44 220
e 44 225
e 44 229
e 44 247
e 44 248
e 45 46
e 45 48
e 45 51
e 45 52
e 45 58
e 45 60
e 45 62
e 45 67
e 45 68
e 45 79
e 45 80
e 45 82
e 45 84
e 45 89
e 45 90
e 45 92
e 45 103
e 45 120
e 45 122
e 45 125
e 45 134
e 45 148
e 45 166
e 45 169
e 45 190
e 45 199
e 45 207
e 45 209
e 45 215
e 45 218
e 45 220
e 45 231
e 45 244
e 45 245
e 45 249
e 46 47
e 46 48
e 46 51
e 46 52
e 46 55
e 46 60
e 46 67
e 46 68
e 46 70
e 46 75
e 46 100
e 46 107
e 46 110
e 46 115
e 46 126
e 46 127
e 46 131
e 46 142
e 46 149
e 46 153
e 46 158
e 46 164
e 46 166
e 46 194
e 46 202
e 46 210
e 46 222
e 46 228
e 46 231
e 46 250
e 47 49
e 47 52
e 47 55
e 47 58
e 47 60
e 47 63
e 47 64
e 47 67
e 47 69
e 47 72
e 47 75
e 47 76
e 47 81
e 47 82
e 47 89
e 47 92
e 47 106
e 47 108
e 47 111
e 47 115
e 47 124
e 47 134
e 47 149
e 47 163
e 47 197
e 47 212
e 47 240
e 48 49
e 48 50
e 48 57
e 48 64
e 48 65
e 48 69
e 48 71
e 48 72
e 48 76
e 48 80
e 48 83
e 48 86
e 48 87
e 48 95
e 48 98
e 48 110
e 48 112
e 48 114
e 48 118
e 48 121
e 48 127
e 48 134
e 48 136
e 48 137
e 48 140
e 48 143
e 48 147
e 48 154
e 48 171
e 48 182
e 48 190
e 48 196
e 48 210
e 48 217
e 48 228
e 48 232
e 48 233
e 48 235
e 48 250
e 49 50
e 49 54
e 49 58
e 49 74
e 49 87
e 49 93
e 49 97
e 49 116
e 49 121
e 49 123
e 49 128
e 49 135
e 49 142
e 49 168
e 49 170
e 49 178
e 49 179
e 49 180
e 49 182
e 49 187
e 49 190
e 49 191
e 49 197
e 49 214
e 49 216
e 49 234
e 49 236
e 49 239
e 49 243
e 50 53
e 50 56
e 50 62
e 50 74
e 50 77
e 50 79
e 50 82
e 50 84
e 50 97
e 50 104
e 50 108
e 50 137
e 50 139
e 50 146
e 50 147
e 50 154
e 50 172
e 50 178
e 50 180
e 50 192
e 50 195
e 50 215
e 50 219
e 50 227
e 50 244
e 50 249
e 51 59
e 51 60
e 51 65
e 51 73
e 51 74
e 51 82
e 51 98
e 51 99
e 51 101
e 51 105
e 51 107
e 51 111
e 51 115
e 51 116
e 51 122
e 51 126
e 51 130
e 51 139
e 51 153
e 51 154
e 51 155
e 51 158
e 51 171
e 51 179
e 51 184
e 51 186
e 51 188
e 51 190
e 51 193
e 51 194
e 51 197
e 51 213
e 51 217
e 51 223
e 51 229
e 52 53
e 52 54
e 52 55
e 52 57
e 52 61
e 52 63
e 52 67
e 52 74
e 52 77
e 52 81
e 52 85
e 52 89
e 52 90
e 52 96
e 52 107
e 52 111
e 52 113
e 52 114
e 52 115
e 52 135
e 52 137
e 52 146
e 52 161
e 52 204
e 52 222
e 52 246
e 53 55
e 53 63
e 53 64
e 53 65
e 53 66
e 53 68
e 53 71
e 53 72
e 53 73
e 53 77
e 53 80
e 53 95
e 53 108
e 53 114
e 53 178
e 53 180
e 53 186
e 53 192
e 53 193
e 53 196
e 53 199
e 53 206
e 53 211
e 53 212
e 53 218
e 53 222
e 53 223
e 53 236
e 54 57
e 54 62
e 54 69
e 54 73
e 54 77
e 54 78
e 54 79
e 54 81
e 54 91
e 54 92
e 54 97
e 54 100
e 54 109
e 54 113
e 54 119
e 54 127
e 54 132
e 54 137
e 54 149
e 54 178
e 54 192
e 54 198
e 54 216
e 54 226
e 54 240
e 55 56
e 55 57
e 55 59
e 55 66
e 55 67
e 55 77
e 55 81
e 55 90
e 55 96
e 55 100
e 55 116
e 55 123
e 55 124
e 55 148
e 55 160
e 55 162
e 55 171
e 55 176
e 55 181
e 55 183
e 55 187
e 55 189
e 55 193
e 55 203
e 55 209
e 55 224
e 56 59
e 56 62
e 56 63
e 56 64
e 56 70
e 56 93
e 56 108
e 56 115
e 56 121
e 56 123
e 56 127
e 56 130
e 56 132
e 56 145
e 56 160
e 56 161
e 56 164
e 56 179
e 56 187
e 57 64
e 57 65
e 57 70
e 57 72
e 57 75
e 57 82
e 57 87
e 57 96
e 57 106
e 57 111
e 57 118
e 57 127
e 57 135
e 57 140
e 57 141
e 57 155
e 57 164
e 57 173
e 57 174
e 57 175
e 57 186
e 57 187
e 57 195
e 57 197
e 57 198
e 57 201
e 57 205
e 57 216
e 57 221
e 57 239
e 58 64
e 58 67
e 58 69
e 58 74
e 58 95
e 58 98
e 58 99
e 58 106
e 58 128
e 58 134
e 58 142
e 58 148
e 58 154
e 58 162
e 58 166
e 58 173
e 58 194
e 58 205
e 58 214
e 58 216
e 58 241
e 59 67
e 59 79
e 59 85
e 59 93
e 59 94
e 59 100
e 59 136
e 59 145
e 59 150
e 59 155
e 59 161
e 59 163
e 59 190
e 59 192
e 59 215
e 59 220
e 59 230
e 59 244
e 60 62
e 60 66
e 60 67
e 60 76
e 60 86
e 60 89
e 60 93
e 60 95
e 60 100
e 60 101
e 60 103
e 60 110
e 60 114
e 60 124
e 60 130
e 60 135
e 60 141
e 60 144
e 60 163
e 60 164
e 60 174
e 60 177
e 60 181
e 60 187
e 60 209
e 60 211
e 60 217
e 60 239
e 60 241
e 60 250
e 61 75
e 61 88
e 61 102
e 61 104
e 61 109
e 61 124
e 61 130
e 61 139
e 61 157
e 61 179
e 61 190
e 61 204
e 61 236
e 61 243
e 61 245
e 61 247
e 62 65
e 62 73
e 62 77
e 62 78
e 62 80
e 62 88
e 62 111
e 62 114
e 62 126
e 62 129
e 62 134
e 62 135
e 62 136
e 62 138
e 62 147
e 62 154
e 62 160
e 62 166
e 62 169
e 62 170
e 62 172
e 62 188
e 62 194
e 62 198
e 62 207
e 62 210
e 62 215
e 62 229
e 62 232
e 62 246
e 63 70
e 63 75
e 63 113
e 63 115
e 63 119
e 63 121
e 63 139
e 63 158
e 63 167
e 63 175
e 63 184
e 63 212
e 63 215
e 63 229
e 63 230
e 63 240
e 63 251
e 64 80
e 64 86
e 64 94
e 64 110
e 64 116
e 64 121
e 64 141
e 64 147
e 64 172
e 64 178
e 64 210
e 64 230
e 64 243
e 64 248
e 65 69
e 65 70
e 65 71
e 65 72
e 65 73
e 65 78
e 65 81
e 65 89
e 65 90
e 65 102
e 65 104
e 65 105
e 65 125
e 65 126
e 65 136
e 65 156
e 65 168
e 65 173
e 65 174
e 65 194
e 65 199
e 65 203
e 65 211
e 65 223
e 65 228
e 65 242
e 65 246
e 65 247
e 65 249
e 66 77
e 66 88
e 66 93
e 66 107
e 66 119
e 66 122
e 66 137
e 66 152
e 66 162
e 66 175
e 66 193
e 66 210
e 66 222
e 66 238
e 67 69
e 67 72
e 67 76
e 67 82
e 67 90
e 67 91
e 67 96
e 67 97
e 67 112
e 67 124
e 67 137
e 67 141
e 67 164
e 67 196
e 67 216
e 67 230
e 68 75
e 68 76
e 68 87
e 68 89
e 68 97
e 68 106
e 68 107
e 68 135
e 68 143
e 68 168
e 68 171
e 68 174
e 68 181
e 68 227
e 68 228
e 68 231
e 68 242
e 69 83
e 69 84
e 69 102
e 69 105
e 69 113
e 69 114
e 69 119
e 69 120
e 69 131
e 69 138
e 69 171
e 69 173
e 69 177
e 69 181
e 69 184
e 69 205
e 69 244
e 70 75
e 70 83
e 70 85
e 70 91
e 70 108
e 70 117
e 70 119
e 70 140
e 70 147
e 70 154
e 70 188
e 70 202
e 70 219
e 70 230
e 70 235
e 70 239
e 71 79
e 71 80
e 71 117
e 71 131
e 71 176
e 71 185
e 71 196
e 71 218
e 71 243
e 72 76
e 72 77
e 72 78
e 72 86
e 72 97
e 72 106
e 72 122
e 72 133
e 72 139
e 72 142
e 72 145
e 72 153
e 72 185
e 72 192
e 72 200
e 72 224
e 72 225
e 72 229
e 72 234
e 72 246
e 73 92
e 73 94
e 73 98
e 73 102
e 73 114
e 73 119
e 73 141
e 73 207
e 73 217
e 73 247
e 74 82
e 74 99
e 74 158
e 74 161
e 74 163
e 74 179
e 74 183
e 74 192
e 74 201
e 74 226
e 74 238
e 74 247
e 74 249
e 75 86
e 75 92
e 75 102
e 75 106
e 75 110
e 75 137
e 75 138
e 75 145
e 75 168
e 75 169
e 75 172
e 75 177
e 75 206
e 75 213
e 75 239
e 75 244
e 75 249
e 76 78
e 76 96
e 76 109
e 76 115
e 76 122
e 76 125
e 76 127
e 76 130
e 76 143
e 76 144
e 76 153
e 76 158
e 76 211
e 77 79
e 77 86
e 77 89
e 77 94
e 77 103
e 77 106
e 77 120
e 77 137
e 77 146
e 77 163
e 77 169
e 77 171
e 77 174
e 77 178
e 77 199
e 77 215
e 77 226
e 78 79
e 78 86
e 78 87
e 78 110
e 78 113
e 78 139
e 78 141
e 78 152
e 78 155
e 78 212
e 79 86
e 79 109
e 79 111
e 79 113
e 79 117
e 79 120
e 79 123
e 79 126
e 79 133
e 79 134
e 79 141
e 79 147
e 79 152
e 79 156
e 79 165
e 79 169
e 79 177
e 79 179
e 79 181
e 79 196
e 79 198
e 79 206
e 79 210
e 79 216
e 79 223
e 79 226
e 79 240
e 79 251
e 80 87
e 80 103
e 80 118
e 80 121
e 80 133
e 80 139
e 80 149
e 80 176
e 80 182
e 80 199
e 80 205
e 80 217
e 80 232
e 80 239
e 80 246
e 80 249
e 80 250
e 80 251
e 81 83
e 81 85
e 81 88
e 81 105
e 81 108
e 81 126
e 81 132
e 81 154
e 81 163
e 81 171
e 81 172
e 81 174
e 81 183
e 81 190
e 81 216
e 81 224
e 81 236
e 82 98
e 82 104
e 82 105
e 82 116
e 82 121
e 82 132
e 82 140
e 82 156
e 82 169
e 82 172
e 82 224
e 82 228
e 83 90
e 83 91
e 83 98
e 83 104
e 83 109
e 83 128
e 83 140
e 83 148
e 83 153
e 83 203
e 83 211
e 83 214
e 83 225
e 83 246
e 83 247
e 83 248
e 84 87
e 84 91
e 84 116
e 84 130
e 84 134
e 84 209
e 84 211
e 85 96
e 85 97
e 85 98
e 85 101
e 85 126
e 85 146
e 85 158
e 85 177
e 85 186
e 85 190
e 85 194
e 85 196
e 85 201
e 85 219
e 85 222
e 86 100
e 86 108
e 86 113
e 86 119
e 86 138
e 86 142
e 86 147
e 86 150
e 86 151
e 86 153
e 86 185
e 86 190
e 86 216
e 86 217
e 86 220
e 86 242
e 86 243
e 87 92
e 87 96
e 87 97
e 87 112
e 87 118
e 87 120
e 87 123
e 87 133
e 87 159
e 87 162
e 87 163
e 87 189
e 87 195
e 87 196
e 87 197
e 87 226
e 87 244
e 88 96
e 88 99
e 88 106
e 88 122
e 88 128
e 88 135
e 88 146
e 88 160
e 88 164
e 88 165
e 88 173
e 88 174
e 88 179
e 88 210
e 88 242
e 88 248
e 88 250
e 88 251
e 89 92
e 89 93
e 89 107
e 89 112
e 89 119
e 89 129
e 89 142
e 89 154
e 89 155
e 89 157
e 89 167
e 89 170
e 89 233
e 89 241
e 90 91
e 90 106
e 90 133
e 90 134
e 90 138
e 90 141
e 90 171
e 90 173
e 90 183
e 90 210
e 90 224
e 90 229
e 90 234
e 91 95
e 91 111
e 91 113
e 91 127
e 91 128
e 91 129
e 91 159
e 91 160
e 91 168
e 91 170
e 91 195
e 91 197
e 91 213
e 91 215
e 91 244
e 91 249
e 92 98
e 92 101
e 92 103
e 92 124
e 92 125
e 92 144
e 92 152
e 92 154
e 92 164
e 92 167
e 92 207
e 92 224
e 92 225
e 93 107
e 93 111
e 93 126
e 93 128
e 93 150
e 93 152
e 93 158
e 93 176
e 93 183
e 93 193
e 93 194
e 93 202
e 93 208
e 93 238
e 93 250
e 94 110
e 94 117
e 94 139
e 94 140
e 94 160
e 94 179
e 94 185
e 94 194
e 94 242
e 94 244
e 95 106
e 95 108
e 95 111
e 95 112
e 95 130
e 95 147
e 95 197
e 95 201
e 95 216
e 95 221
e 95 225
e 95 245
e 96 112
e 96 118
e 96 128
e 96 142
e 96 144
e 96 145
e 96 150
e 96 174
e 96 181
e 96 185
e 96 186
e 96 211
e 96 214
e 97 109
e 97 114
e 97 115
e 97 131
e 97 155
e 97 166
e 97 220
e 97 245
e 97 246
e 98 102
e 98 115
e 98 126
e 98 133
e 98 144
e 98 157
e 98 169
e 98 170
e 98 181
e 98 219
e 98 227
e 98 237
e 98 245
e 99 100
e 99 103
e 99 104
e 99 127
e 99 133
e 99 137
e 99 138
e 99 150
e 99 151
e 99 157
e 99 172
e 99 202
e 99 215
e 99 223
e 99 224
e 99 225
e 99 229
e 99 236
e 100 101
e 100 114
e 100 129
e 100 136
e 100 144
e 100 151
e 100 157
e 100 161
e 100 165
e 100 168
e 100 175
e 100 185
e 100 192
e 100 202
e 100 203
e 100 205
e 100 206
e 100 221
e 100 227
e 100 230
e 100 242
e 101 113
e 101 119
e 101 125
e 101 141
e 101 144
e 101 150
e 101 156
e 101 160
e 101 174
e 101 181
e 101 182
e 101 185
e 101 186
e 101 191
e 101 202
e 101 208
e 101 212
e 101 217
e 101 224
e 101 230
e 101 233
e 101 244
e 102 214
e 102 222
e 102 226
e 102 234
e 102 242
e 103 110
e 103 117
e 103 137
e 103 167
e 103 181
e 103 184
e 103 188
e 103 205
e 103 207
e 103 220
e 103 222
e 103 225
e 103 229
e 104 128
e 104 140
e 104 150
e 104 198
e 104 205
e 104 219
e 104 222
e 104 231
e 104 247
e 105 123
e 105 135
e 105 150
e 105 162
e 105 223
e 105 229
e 106 109
e 106 162
e 106 166
e 106 171
e 106 187
e 106 196
e 106 200
e 106 241
e 106 247
e 107 112
e 107 115
e 107 130
e 107 163
e 107 171
e 107 190
e 107 198
e 108 110
e 108 113
e 108 131
e 108 134
e 108 179
e 108 181
e 108 196
e 108 201
e 108 245
e 109 140
e 109 151
e 109 152
e 109 153
e 109 175
e 109 201
e 109 202
e 109 221
e 109 224
e 109 227
e 109 229
e 110 116
e 110 117
e 110 123
e 110 130
e 110 145
e 110 155
e 110 173
e 110 186
e 110 188
e 110 235
e 110 249
e 111 159
e 111 163
e 111 166
e 111 178
e 111 237
e 111 243
e 112 150
e 112 163
e 112 166
e 112 193
e 112 195
e 112 203
e 112 204
e 112 218
e 112 231
e 112 235
e 112 236
e 112 251
e 113 116
e 113 126
e 113 141
e 113 148
e 113 151
e 113 250
e 114 117
e 114 122
e 114 129
e 114 150
e 114 154
e 114 161
e 114 166
e 114 177
e 114 238
e 115 126
e 115 136
e 115 139
e 115 145
e 115 164
e 115 178
e 115 187
e 115 190
e 115 194
e 115 207
e 115 212
e 115 232
e 116 148
e 116 163
e 116 175
e 116 193
e 116 228
e 116 232
e 116 233
e 116 237
e 116 238
e 116 241
e 116 251
e 117 127
e 117 145
e 117 161
e 117 182
e 117 206
e 117 239
e 117 247
e 118 119
e 118 120
e 118 127
e 118 181
e 118 187
e 118 191
e 118 204
e 118 248
e 119 123
e 119 125
e 119 127
e 119 137
e 119 146
e 119 147
e 119 149
e 119 157
e 119 177
e 119 182
e 119 189
e 119 215
e 119 222
e 119 230
e 120 123
e 120 134
e 120 143
e 120 154
e 120 156
e 120 163
e 120 176
e 120 213
e 120 218
e 120 231
e 120 248
e 121 130
e 121 139
e 121 143
e 121 153
e 121 192
e 121 202
e 121 218
e 122 146
e 122 147
e 122 160
e 122 168
e 122 179
e 122 185
e 122 204
e 122 232
e 122 237
e 123 169
e 123 217
e 123 219
e 124 129
e 124 155
e 124 161
e 124 199
e 124 213
e 124 214
e 124 223
e 124 224
e 125 148
e 125 166
e 125 175
e 125 199
e 125 209
e 125 210
e 125 221
e 125 222
e 125 224
e 125 237
e 125 243
e 125 244
e 125 249
e 126 152
e 126 157
e 126 186
e 126 194
e 126 195
e 126 250
e 127 150
e 127 165
e 127 207
e 127 217
e 127 225
e 127 248
e 128 131
e 128 133
e 128 173
e 128 180
e 128 234
e 128 235
e 128 237
e 128 251
e 129 131
e 129 151
e 129 172
e 129 213
e 129 231
e 129 245
e 130 137
e 130 157
e 130 177
e 130 184
e 130 215
e 130 224
e 130 225
e 130 228
e 130 246
e 131 160
e 131 180
e 131 181
e 131 197
e 131 202
e 131 221
e 131 232
e 131 235
e 131 240
e 132 134
e 132 157
e 132 173
e 132 178
e 132 183
e 132 192
e 132 208
e 132 245
e 133 134
e 133 144
e 133 155
e 133 184
e 133 189
e 133 191
e 133 216
e 134 165
e 134 167
e 134 171
e 134 180
e 134 197
e 134 198
e 134 208
e 134 209
e 134 214
e 134 238
e 134 244
e 135 146
e 135 158
e 135 175
e 135 188
e 135 199
e 135 235
e 135 243
e 135 244
e 136 175
e 136 187
e 136 193
e 136 204
e 136 208
e 136 211
e 136 217
e 136 228
e 136 240
e 136 246
e 136 247
e 137 145
e 137 186
e 137 199
e 137 203
e 137 216
e 137 217
e 137 231
e 137 247
e 138 151
e 138 202
e 138 237
e 139 177
e 139 204
e 139 236
e 139 238
e 140 170
e 140 215
e 140 243
e 140 249
e 141 169
e 141 225
e 141 228
e 142 156
e 142 167
e 142 177
e 142 207
e 143 167
e 143 170
e 143 201
e 143 211
e 143 234
e 144 168
e 144 222
e 145 151
e 145 160
e 145 195
e 145 205
e 145 208
e 145 211
e 145 240
e 146 157
e 146 165
e 146 176
e 146 198
e 146 218
e 146 231
e 146 251
e 147 152
e 147 175
e 147 232
e 148 152
e 148 154
e 148 162
e 148 171
e 148 206
e 148 212
e 148 242
e 148 246
e 149 153
e 149 154
e 149 166
e 149 183
e 149 188
e 149 195
e 149 235
e 150 184
e 150 189
e 150 191
e 150 200
e 150 218
e 150 248
e 151 155
e 151 164
e 151 171
e 151 179
e 151 201
e 151 228
e 151 235
e 151 240
e 151 242
e 151 247
e 152 167
e 152 174
e 152 200
e 152 246
e 153 158
e 153 170
e 153 183
e 153 184
e 153 201
e 153 202
e 153 233
e 154 162
e 154 231
e 155 160
e 156 193
e 156 194
e 156 214
e 157 166
e 157 173
e 157 220
e 157 223
e 158 161
e 158 179
e 158 218
e 158 219
e 158 234
e 159 192
e 159 200
e 159 209
e 159 217
e 159 222
e 159 227
e 159 238
e 159 240
e 159 247
e 160 165
e 160 204
e 161 166
e 162 167
e 162 239
e 162 246
e 162 250
e 163 170
e 163 176
e 163 179
e 163 196
e 163 247
e 164 181
e 164 199
e 164 225
e 165 201
e 165 234
e 166 168
e 166 188
e 166 203
e 166 237
e 166 241
e 167 188
e 167 192
e 167 214
e 168 193
e 168 206
e 168 213
e 168 226
e 169 170
e 169 176
e 169 186
e 169 201
e 169 210
e 169 232
e 169 235
e 169 241
e 169 251
e 170 189
e 170 198
e 170 203
e 170 205
e 170 219
e 170 223
e 170 227
e 170 244
e 171 192
e 171 219
e 172 191
e 172 203
e 172 211
e 173 204
e 173 205
e 173 208
e 173 222
e 173 231
e 174 176
e 174 189
e 174 206
e 174 207
e 174 221
e 174 237
e 175 197
e 175 203
e 175 212
e 175 233
e 175 249
e 176 220
e 177 189
e 177 204
e 178 227
e 178 236
e 179 187
e 179 191
e 179 200
e 179 212
e 179 226
e 179 237
e 179 242
e 180 184
e 180 200
e 180 213
e 180 232
e 180 236
e 181 189
e 181 197
e 182 188
e 182 198
e 182 199
e 183 220
e 183 227
e 184 187
e 184 230
e 184 244
e 184 246
e 185 187
e 185 206
e 185 209
e 185 229
e 185 235
e 186 195
e 186 206
e 186 209
e 186 231
e 186 242
e 187 209
e 187 222
e 188 203
e 189 209
e 189 214
e 190 202
e 190 211
e 190 218
e 190 242
e 191 210
e 191 251
e 192 208
e 192 239
e 193 196
e 193 199
e 193 238
e 194 223
e 195 197
e 195 204
e 195 227
e 195 240
e 197 200
e 197 220
e 197 225
e 198 207
e 198 221
e 198 226
e 199 233
e 200 216
e 200 223
e 200 246
e 201 219
e 201 238
e 202 208
e 202 221
e 202 227
e 202 230
e 202 237
e 202 243
e 204 224
e 204 225
e 204 226
e 205 209
e 205 226
e 206 237
e 206 251
e 207 241
e 208 223
e 208 250
e 209 216
e 209 228
e 210 236
e 211 217
e 211 227
e 213 223
e 213 226
e 213 239
e 215 221
e 215 233
e 217 220
e 217 237
e 218 237
e 219 233
e 221 241
e 222 234
e 223 228
e 223 246
e 224 230
e 224 243
e 224 250
e 225 232
e 226 234
e 227 230
e 228 249
e 231 245
e 233 240
e 243 245
e 243 251
e 246 247
e 248 250
e 248 251
